NAME 
ROWS
 N  OBJ
 L  R0      
 L  R1      
 L  R2      
 E  R3      
 E  R4      
 E  R5      
 E  R6      
 E  R7      
 E  R8      
 E  R9      
 E  R10     
 E  R11     
 E  R12     
COLUMNS
    MARKER    'MARKER'                 'INTORG'
    I0(8)     OBJ       -196
    I0(8)     R0        -124
    I0(8)     R1        197
    I0(8)     R2        158
    I0(8)     R3        11
    I0(8)     R5        13
    I0(8)     R6        -1
    I0(8)     R7        3
    I0(8)     R12       1
    I1(6)     OBJ       -33
    I1(6)     R0        150
    I1(6)     R1        -113
    I1(6)     R2        68
    I1(6)     R3        16
    I1(6)     R5        2
    I1(6)     R12       1
    I2(8)     OBJ       -1
    I2(8)     R0        110
    I2(8)     R1        -166
    I2(8)     R2        -34
    I2(8)     R3        14
    I2(8)     R4        8
    I2(8)     R5        9
    I2(8)     R6        13
    I2(8)     R12       1
    I3(6)     OBJ       38
    I3(6)     R0        154
    I3(6)     R1        15
    I3(6)     R2        77
    I3(6)     R3        16
    I3(6)     R4        4
    I3(6)     R12       1
    I4(5)     OBJ       -9
    I4(5)     R0        120
    I4(5)     R1        -21
    I4(5)     R2        -200
    I4(5)     R6        2
    I4(5)     R12       1
    MARKER    'MARKER'                 'INTEND'
    C5(7)     OBJ       5
    C5(7)     R0        -7
    C5(7)     R1        9
    C5(7)     R2        3
    C5(7)     R4        -1
    C5(7)     R6        12
    C5(7)     R9        16
    C5(7)     R10       6
    C6(4)     OBJ       -5
    C6(4)     R0        -6
    C6(4)     R2        2
    C6(4)     R4        18
    C6(4)     R10       8
    C7(8)     OBJ       -7
    C7(8)     R0        -7
    C7(8)     R1        -9
    C7(8)     R2        -5
    C7(8)     R5        -1
    C7(8)     R6        -1
    C7(8)     R7        -1
    C7(8)     R8        10
    C7(8)     R10       4
    C8(9)     R0        3
    C8(9)     R1        -7
    C8(9)     R2        5
    C8(9)     R3        7
    C8(9)     R4        4
    C8(9)     R8        1
    C8(9)     R9        19
    C8(9)     R10       12
    C8(9)     R11       12
    C9(8)     OBJ       -1
    C9(8)     R0        -10
    C9(8)     R1        5
    C9(8)     R2        2
    C9(8)     R6        2
    C9(8)     R8        6
    C9(8)     R9        4
    C9(8)     R10       17
    C9(8)     R11       -1
    C10(1)    R3        1
    C11(1)    R4        1
    C12(1)    R5        1
    C13(1)    R6        1
    C14(1)    R7        1
    C15(1)    R8        1
    C16(1)    R9        1
    C17(1)    R10       1
    C18(1)    R11       1
    C19(1)    R12       1
RHS
    RHS1      R0        -2.0006666666666683e+02
    RHS1      R1        123.2
    RHS1      R2        1.2322222222222229e+02
    RHS1      R3        56
    RHS1      R4        56
    RHS1      R5        76
    RHS1      R6        61
    RHS1      R7        54
    RHS1      R8        82
    RHS1      R9        75
    RHS1      R10       98
    RHS1      R11       68
    RHS1      R12       1
BOUNDS
 UP BND1      I0(8)     2
 UP BND1      I1(6)     2
 UP BND1      I2(8)     2
 UP BND1      I3(6)     2
 UP BND1      I4(5)     2
ENDATA
